(set-logic QF_S)
(declare-fun var0 () String)
(declare-fun var1 () Int)
(declare-fun var2 () Bool)
(declare-fun var3 () String)
(declare-fun var4 () Int)
(declare-fun var5 () Bool)
(declare-fun var6 () String)
(declare-fun var7 () Int)
(declare-fun var8 () Bool)
(assert (str.prefixof (str.replace var3 var3 var6) (str.replace var6 var6 var0)))
(assert (<= var4 var1))
(assert (< (str.len (str.substr var6 var7 var7)) (str.indexof var0 "!!;@2xtP2~" var4)))
(assert (<= (str.indexof (str.substr var6 var4 var7) (str.replace var6 var6 var3) (str.indexof var6 var6 var4)) (str.len (str.substr var0 var1 var1))))
(check-sat)